NAME : sim17.46329.tour
COMMENT : Length = 46329
COMMENT : Found by LKH [Keld Helsgaun] Fri Sep 14 09:36:59 2018
TYPE : TOUR
DIMENSION : 17
TOUR_SECTION
1
3
13
8
17
11
12
14
4
15
16
9
2
6
5
7
10
-1
EOF
